c instancia_06  vars=15  clausulas=25  k=2
p cnf 15 25
4 -15 0
-12 14 0
-1 3 0
12 -5 0
-12 -7 0
9 -2 0
-7 -8 0
15 -3 0
9 11 0
-13 -11 0
8 -2 0
5 -4 0
-12 1 0
-5 -1 0
-13 -5 0
4 -11 0
-10 -4 0
10 -11 0
14 -5 0
15 13 0
8 -10 0
7 8 0
-6 3 0
-5 15 0
-2 -13 0
